NAME : N60ft203.dat.11942.tour
COMMENT : Length = 11942
COMMENT : Found by LKH [Keld Helsgaun] Sat Nov 11 16:42:00 2017
TYPE : TOUR
DIMENSION : 60
TOUR_SECTION
1
4
7
49
36
47
14
17
51
27
20
45
28
48
19
30
59
23
11
3
52
33
12
38
32
10
26
16
40
29
25
54
35
60
58
13
57
9
22
53
5
15
55
56
24
37
46
44
34
6
31
41
2
42
43
18
39
8
50
21
-1
EOF
